benchmarks/bfuzz0/245741710628222225331644818185221345908.smt2
(set-logic QF_FP)
(declare-const x0 (_ FloatingPoint 11 53))
(declare-const x1 (_ FloatingPoint 11 53))
(declare-const x2 (_ FloatingPoint 11 53))
(declare-const x3 (_ FloatingPoint 11 53))
(declare-const x4 (_ FloatingPoint 11 53))
(declare-const x5 (_ FloatingPoint 11 53))
(declare-const x6 (_ FloatingPoint 11 53))
(assert (fp.eq (fp.div RNE x5 x0) (fp.div RNE x1 x1)))
(assert (fp.eq (fp.sub RNE x3 x4) (fp.div RNE x4 x4)))
(assert (fp.lt (fp.sub RNE x4 x0) (fp.add RNE x3 x0)))
(assert (fp.lt (fp.mul RNE x6 x2) (fp.sub RNE x5 x1)))
(assert (fp.gt (fp.add RNE x0 x1) (fp.div RNE x2 x2)))
(assert (fp.gt (fp.div RNE x6 x3) (fp.div RNE x1 x4)))
(assert (fp.leq (fp.add RNE x3 x6) (fp.sub RNE x2 x2)))
(assert (fp.lt (fp.sub RNE x4 x2) (fp.neg x4)))
(assert (fp.gt (fp.neg x6) (fp.div RNE x1 x1)))
(assert (fp.leq (fp.div RNE x2 x6) (fp.sub RNE x0 x5)))
(assert (fp.gt (fp.sub RNE x5 x2) (fp.sub RNE x6 x1)))
(assert (fp.geq (fp.mul RNE x5 x2) (fp.div RNE x5 x4)))
(assert (fp.gt (fp.sub RNE x3 x2) (fp.div RNE x1 x3)))
(assert (fp.lt (fp.mul RNE x1 x6) (fp.mul RNE x4 x2)))
(assert (fp.gt (fp.div RNE x0 x6) (fp.neg x5)))
(assert (fp.geq (fp.neg x3) (fp.neg x5)))
(check-sat)
