db/data/245741710628222225331644818185221345908.z3.out
-------------------
2500.132677077
